c CNF file corresponding to a (partial) station packing problem.
p cnf 2820 213
1 2 3 4 5 6 7 8 9 10 11 12 13 14 0
-1 -2 0
-1 -3 0
-1 -4 0
-1 -5 0
-1 -6 0
-1 -7 0
-1 -8 0
-1 -9 0
-1 -10 0
-1 -11 0
-1 -12 0
-1 -13 0
-1 -14 0
-2 -3 0
-2 -4 0
-2 -5 0
-2 -6 0
-2 -7 0
-2 -8 0
-2 -9 0
-2 -10 0
-2 -11 0
-2 -12 0
-2 -13 0
-2 -14 0
-3 -4 0
-3 -5 0
-3 -6 0
-3 -7 0
-3 -8 0
-3 -9 0
-3 -10 0
-3 -11 0
-3 -12 0
-3 -13 0
-3 -14 0
-4 -5 0
-4 -6 0
-4 -7 0
-4 -8 0
-4 -9 0
-4 -10 0
-4 -11 0
-4 -12 0
-4 -13 0
-4 -14 0
-5 -6 0
-5 -7 0
-5 -8 0
-5 -9 0
-5 -10 0
-5 -11 0
-5 -12 0
-5 -13 0
-5 -14 0
-6 -7 0
-6 -8 0
-6 -9 0
-6 -10 0
-6 -11 0
-6 -12 0
-6 -13 0
-6 -14 0
-7 -8 0
-7 -9 0
-7 -10 0
-7 -11 0
-7 -12 0
-7 -13 0
-7 -14 0
-8 -9 0
-8 -10 0
-8 -11 0
-8 -12 0
-8 -13 0
-8 -14 0
-9 -10 0
-9 -11 0
-9 -12 0
-9 -13 0
-9 -14 0
-10 -11 0
-10 -12 0
-10 -13 0
-10 -14 0
-11 -12 0
-11 -13 0
-11 -14 0
-12 -13 0
-12 -14 0
-13 -14 0
2805 2806 2807 2808 2809 2810 2811 2812 2813 2814 2815 2816 2817 2818 2819 2820 0
-2805 -2806 0
-2805 -2807 0
-2805 -2808 0
-2805 -2809 0
-2805 -2810 0
-2805 -2811 0
-2805 -2812 0
-2805 -2813 0
-2805 -2814 0
-2805 -2815 0
-2805 -2816 0
-2805 -2817 0
-2805 -2818 0
-2805 -2819 0
-2805 -2820 0
-2806 -2807 0
-2806 -2808 0
-2806 -2809 0
-2806 -2810 0
-2806 -2811 0
-2806 -2812 0
-2806 -2813 0
-2806 -2814 0
-2806 -2815 0
-2806 -2816 0
-2806 -2817 0
-2806 -2818 0
-2806 -2819 0
-2806 -2820 0
-2807 -2808 0
-2807 -2809 0
-2807 -2810 0
-2807 -2811 0
-2807 -2812 0
-2807 -2813 0
-2807 -2814 0
-2807 -2815 0
-2807 -2816 0
-2807 -2817 0
-2807 -2818 0
-2807 -2819 0
-2807 -2820 0
-2808 -2809 0
-2808 -2810 0
-2808 -2811 0
-2808 -2812 0
-2808 -2813 0
-2808 -2814 0
-2808 -2815 0
-2808 -2816 0
-2808 -2817 0
-2808 -2818 0
-2808 -2819 0
-2808 -2820 0
-2809 -2810 0
-2809 -2811 0
-2809 -2812 0
-2809 -2813 0
-2809 -2814 0
-2809 -2815 0
-2809 -2816 0
-2809 -2817 0
-2809 -2818 0
-2809 -2819 0
-2809 -2820 0
-2810 -2811 0
-2810 -2812 0
-2810 -2813 0
-2810 -2814 0
-2810 -2815 0
-2810 -2816 0
-2810 -2817 0
-2810 -2818 0
-2810 -2819 0
-2810 -2820 0
-2811 -2812 0
-2811 -2813 0
-2811 -2814 0
-2811 -2815 0
-2811 -2816 0
-2811 -2817 0
-2811 -2818 0
-2811 -2819 0
-2811 -2820 0
-2812 -2813 0
-2812 -2814 0
-2812 -2815 0
-2812 -2816 0
-2812 -2817 0
-2812 -2818 0
-2812 -2819 0
-2812 -2820 0
-2813 -2814 0
-2813 -2815 0
-2813 -2816 0
-2813 -2817 0
-2813 -2818 0
-2813 -2819 0
-2813 -2820 0
-2814 -2815 0
-2814 -2816 0
-2814 -2817 0
-2814 -2818 0
-2814 -2819 0
-2814 -2820 0
-2815 -2816 0
-2815 -2817 0
-2815 -2818 0
-2815 -2819 0
-2815 -2820 0
-2816 -2817 0
-2816 -2818 0
-2816 -2819 0
-2816 -2820 0
-2817 -2818 0
-2817 -2819 0
-2817 -2820 0
-2818 -2819 0
-2818 -2820 0
-2819 -2820 0
